
Gurobi 13.0.1 (linux64) logging started Sun Mar 22 13:25:09 2026

Set parameter LogFile to value "logs/50B_6F_robust_gamma_1_theta_0d05199999999999999_2026-03-22_13h24m37s.log"
Set parameter MIPGap to value 0.005
Set parameter OptimalityTol to value 0.005
Gurobi Optimizer version 13.0.1 build v13.0.1rc0 (linux64 - "openSUSE Tumbleweed")

CPU model: Intel(R) Core(TM) i7-10610U CPU @ 1.80GHz, instruction set [SSE2|AVX|AVX2]
Thread count: 4 physical cores, 8 logical processors, using up to 8 threads

Non-default parameters:
TimeLimit  3600
SoftMemLimit  12
MIPGap  0.005
OptimalityTol  0.005

Optimize a model with 60351 rows, 780571 columns and 2406497 nonzeros (Max)
Model fingerprint: 0xd91ead0f
Model has 735061 linear objective coefficients
Variable types: 15571 continuous, 765000 integer (765000 binary)
Coefficient statistics:
  Matrix range     [3e-05, 1e+05]
  Objective range  [1e+00, 3e+03]
  Bounds range     [1e+00, 1e+05]
  RHS range        [8e-03, 1e+05]

Presolve removed 31036 rows and 564142 columns
Presolve time: 2.97s
Presolved: 29315 rows, 216429 columns, 690965 nonzeros
Variable types: 7521 continuous, 208908 integer (208908 binary)
Found heuristic solution: objective -3.92159e+08
Found heuristic solution: objective -3.91453e+08
Deterministic concurrent LP optimizer: primal simplex, dual simplex, and barrier
Showing barrier log only...

Root barrier log...

Ordering time: 0.69s

Barrier statistics:
 AA' NZ     : 4.006e+05
 Factor NZ  : 3.177e+06 (roughly 120 MB of memory)
 Factor Ops : 6.164e+08 (less than 1 second per iteration)
 Threads    : 2

                  Objective                Residual
Iter       Primal          Dual         Primal    Dual     Compl     Time
   0  -4.95735874e+11  1.05070229e+09  6.84e+06 1.02e+03  6.74e+06     6s
   1  -6.26511179e+10  1.88073046e+09  8.66e+05 3.99e-11  8.70e+05     6s
   2  -2.53313225e+09  1.46551485e+09  3.38e+04 3.59e-11  3.71e+04     6s
   3  -8.95461217e+07  7.58392867e+08  1.90e+03 4.00e-11  3.29e+03     6s
   4   5.45787015e+07  1.40255561e+08  2.47e+01 4.40e-11  2.03e+02     7s
   5   5.58300200e+07  6.62451507e+07  3.04e-02 6.60e-11  2.33e+01     7s
   6   5.58820107e+07  5.72374532e+07  2.19e-04 1.36e-10  3.03e+00     7s
   7   5.59512110e+07  5.64947643e+07  4.72e-05 9.73e-11  1.21e+00     7s
   8   5.60020609e+07  5.61649487e+07  3.89e-06 9.00e-11  3.64e-01     7s
   9   5.60155397e+07  5.60688329e+07  7.49e-07 9.41e-11  1.19e-01     7s
  10   5.60197769e+07  5.60506366e+07  1.83e-07 1.04e-10  6.90e-02     8s
  11   5.60206275e+07  5.60364593e+07  1.20e-07 1.00e-10  3.54e-02     8s
  12   5.60220230e+07  5.60323179e+07  5.15e-08 1.24e-10  2.30e-02     8s
  13   5.60226905e+07  5.60268609e+07  2.54e-08 9.94e-11  9.32e-03     8s
  14   5.60230413e+07  5.60245927e+07  9.39e-09 8.14e-11  3.47e-03     8s
  15   5.60231459e+07  5.60240358e+07  4.70e-09 1.09e-10  1.99e-03     9s
  16   5.60231866e+07  5.60237423e+07  2.88e-09 1.10e-10  1.24e-03     9s
  17   5.60232170e+07  5.60236195e+07  1.79e-09 1.09e-10  8.99e-04     9s
  18   5.60232332e+07  5.60235894e+07  1.21e-09 1.37e-10  7.96e-04     9s
  19   5.60232433e+07  5.60233202e+07  7.69e-10 8.80e-11  1.72e-04     9s
  20   5.60232463e+07  5.60232871e+07  6.65e-10 8.72e-11  9.10e-05     9s
  21   5.60232625e+07  5.60232763e+07  4.95e-10 9.35e-11  3.09e-05    10s
  22   5.60232630e+07  5.60232691e+07  1.05e-10 9.19e-11  1.37e-05    10s
  23   5.60232661e+07  5.60232661e+07  9.34e-10 1.04e-10  1.25e-07    10s
  24   5.60232661e+07  5.60232661e+07  2.51e-10 7.91e-11  8.37e-12    10s

Barrier solved model in 24 iterations and 10.14 seconds (5.84 work units)
Optimal objective 5.60232661e+07


Root crossover log...

    8823 DPushes remaining with DInf 0.0000000e+00                10s
       0 DPushes remaining with DInf 0.0000000e+00                10s

    6347 PPushes remaining with PInf 0.0000000e+00                10s
       0 PPushes remaining with PInf 0.0000000e+00                11s

  Push phase complete: Pinf 0.0000000e+00, Dinf 8.3814040e+06     11s


Root simplex log...

Iteration    Objective       Primal Inf.    Dual Inf.      Time
   13969    5.6023266e+07   0.000000e+00   8.381404e+06     11s
   19926    5.6023266e+07   0.000000e+00   4.668866e+07     15s
   23493    5.6023266e+07   0.000000e+00   0.000000e+00     17s
Crossover time: 7.26 seconds (2.97 work units)
Concurrent spin time: 0.00s

Solved with barrier

Root relaxation: objective 5.602327e+07, 23493 iterations, 13.07 seconds (5.73 work units)

    Nodes    |    Current Node    |     Objective Bounds      |     Work
 Expl Unexpl |  Obj  Depth IntInf | Incumbent    BestBd   Gap | It/Node Time

     0     0 5.6023e+07    0 2761 -3.915e+08 5.6023e+07   114%     -   19s
H    0     0                    -3.04896e+08 5.6023e+07   118%     -   22s
H    0     0                    -1.76853e+08 5.6023e+07   132%     -   23s
H    0     0                    -1456388.037 5.6023e+07  3947%     -   38s
H    0     0                    3.244198e+07 5.6023e+07  72.7%     -   39s
H    0     0                    3.990952e+07 5.6023e+07  40.4%     -   42s
H    0     0                    5.597551e+07 5.6023e+07  0.09%     -   44s

Explored 1 nodes (26027 simplex iterations) in 44.15 seconds (28.28 work units)
Thread count was 8 (of 8 available processors)

Solution count 8: 5.59755e+07 3.99095e+07 3.2442e+07 ... -3.92159e+08

Optimal solution found (tolerance 5.00e-03)
Best objective 5.597550732770e+07, best bound 5.602326610621e+07, gap 0.0853%
